14° run output:
{
    "Function": "euclidB300.tsp",
    "Problem dimension": [
        115,
        114,
        72,
        67,
        158,
        101,
        230,
        95,
        47,
        231,
        80,
        12,
        247,
        190,
        213,
        146,
        267,
        103,
        54,
        181,
        16,
        221,
        100,
        298,
        225,
        154,
        37,
        297,
        244,
        275,
        194,
        268,
        209,
        163,
        126,
        157,
        148,
        271,
        169,
        260,
        179,
        3,
        296,
        31,
        214,
        270,
        242,
        197,
        106,
        30,
        235,
        177,
        145,
        277,
        228,
        233,
        254,
        237,
        93,
        133,
        149,
        130,
        138,
        264,
        69,
        193,
        162,
        206,
        113,
        257,
        208,
        21,
        186,
        23,
        15,
        127,
        282,
        135,
        175,
        165,
        291,
        108,
        187,
        147,
        4,
        199,
        256,
        140,
        122,
        143,
        192,
        266,
        25,
        26,
        167,
        185,
        132,
        18,
        201,
        42,
        255,
        279,
        218,
        112,
        71,
        6,
        173,
        84,
        183,
        35,
        249,
        8,
        299,
        156,
        32,
        57,
        5,
        161,
        252,
        88,
        164,
        294,
        220,
        14,
        22,
        63,
        200,
        131,
        295,
        176,
        211,
        28,
        66,
        117,
        205,
        53,
        11,
        111,
        262,
        281,
        195,
        144,
        33,
        293,
        41,
        159,
        178,
        104,
        241,
        56,
        263,
        94,
        139,
        136,
        251,
        60,
        284,
        36,
        77,
        24,
        171,
        51,
        224,
        74,
        129,
        172,
        141,
        99,
        223,
        188,
        198,
        64,
        184,
        43,
        68,
        180,
        160,
        78,
        52,
        46,
        265,
        85,
        0,
        210,
        273,
        34,
        222,
        166,
        203,
        229,
        189,
        121,
        204,
        182,
        29,
        98,
        105,
        155,
        196,
        76,
        238,
        170,
        202,
        289,
        285,
        212,
        91,
        119,
        9,
        61,
        48,
        79,
        227,
        27,
        253,
        90,
        274,
        45,
        75,
        216,
        83,
        248,
        236,
        120,
        39,
        269,
        207,
        288,
        226,
        44,
        20,
        174,
        86,
        286,
        116,
        87,
        215,
        97,
        58,
        259,
        217,
        40,
        150,
        142,
        19,
        272,
        38,
        245,
        280,
        219,
        59,
        239,
        107,
        2,
        276,
        232,
        191,
        258,
        290,
        240,
        118,
        278,
        153,
        110,
        13,
        134,
        82,
        234,
        123,
        102,
        243,
        151,
        17,
        73,
        10,
        125,
        287,
        250,
        292,
        70,
        109,
        92,
        7,
        49,
        65,
        89,
        152,
        261,
        137,
        81,
        283,
        124,
        55,
        62,
        168,
        246,
        1,
        96,
        50,
        128
    ],
    "Global Optimum": 0,
    "Algorithm": "Genetic algorithm",
    "Parameters": {
        "population": 30,
        "offspring": 30,
        "mutation probability": 0.0033333333333333335,
        "crossover probability": 0.9
    },
    "Fitness": 378275,
    "Solution": [
        115,
        114,
        72,
        67,
        158,
        101,
        230,
        95,
        47,
        231,
        80,
        12,
        247,
        190,
        213,
        146,
        267,
        103,
        54,
        181,
        16,
        221,
        100,
        298,
        225,
        154,
        37,
        297,
        244,
        275,
        194,
        268,
        209,
        163,
        126,
        157,
        148,
        271,
        169,
        260,
        179,
        3,
        296,
        31,
        214,
        270,
        242,
        197,
        106,
        30,
        235,
        177,
        145,
        277,
        228,
        233,
        254,
        237,
        93,
        133,
        149,
        130,
        138,
        264,
        69,
        193,
        162,
        206,
        113,
        257,
        208,
        21,
        186,
        23,
        15,
        127,
        282,
        135,
        175,
        165,
        291,
        108,
        187,
        147,
        4,
        199,
        256,
        140,
        122,
        143,
        192,
        266,
        25,
        26,
        167,
        185,
        132,
        18,
        201,
        42,
        255,
        279,
        218,
        112,
        71,
        6,
        173,
        84,
        183,
        35,
        249,
        8,
        299,
        156,
        32,
        57,
        5,
        161,
        252,
        88,
        164,
        294,
        220,
        14,
        22,
        63,
        200,
        131,
        295,
        176,
        211,
        28,
        66,
        117,
        205,
        53,
        11,
        111,
        262,
        281,
        195,
        144,
        33,
        293,
        41,
        159,
        178,
        104,
        241,
        56,
        263,
        94,
        139,
        136,
        251,
        60,
        284,
        36,
        77,
        24,
        171,
        51,
        224,
        74,
        129,
        172,
        141,
        99,
        223,
        188,
        198,
        64,
        184,
        43,
        68,
        180,
        160,
        78,
        52,
        46,
        265,
        85,
        0,
        210,
        273,
        34,
        222,
        166,
        203,
        229,
        189,
        121,
        204,
        182,
        29,
        98,
        105,
        155,
        196,
        76,
        238,
        170,
        202,
        289,
        285,
        212,
        91,
        119,
        9,
        61,
        48,
        79,
        227,
        27,
        253,
        90,
        274,
        45,
        75,
        216,
        83,
        248,
        236,
        120,
        39,
        269,
        207,
        288,
        226,
        44,
        20,
        174,
        86,
        286,
        116,
        87,
        215,
        97,
        58,
        259,
        217,
        40,
        150,
        142,
        19,
        272,
        38,
        245,
        280,
        219,
        59,
        239,
        107,
        2,
        276,
        232,
        191,
        258,
        290,
        240,
        118,
        278,
        153,
        110,
        13,
        134,
        82,
        234,
        123,
        102,
        243,
        151,
        17,
        73,
        10,
        125,
        287,
        250,
        292,
        70,
        109,
        92,
        7,
        49,
        65,
        89,
        152,
        261,
        137,
        81,
        283,
        124,
        55,
        62,
        168,
        246,
        1,
        96,
        50,
        128
    ],
    "Nb of functions evaluations": 50010,
    "Computational time in seconds": 142.99003148078918,
    "Stopping criterion in evaluations": 50000
}